WARNING: for repeatability, setting FPU to use double precision
============================[ Problem Statistics ]=============================
|                                                                             |
|  Number of variables:           100                                         |
|  Number of clauses:             449                                         |
|  Parse time:                   0.00 s                                       |
|  Eliminated clauses:           0.00 Mb                                      |
|  Simplification time:          0.00 s                                       |
|                                                                             |
============================[ Search Statistics ]==============================
| Conflicts |          ORIGINAL         |          LEARNT          | Progress |
|           |    Vars  Clauses Literals |    Limit  Clauses Lit/Cl |          |
===============================================================================
|       100 |      98      447     1352 |      163      100      8 |  0.010 % |
|       250 |      98      447     1352 |      180      166      7 |  0.020 % |
===============================================================================
restarts              : 3
conflicts             : 320            (91822 /sec)
decisions             : 398            (0.00 % random) (114204 /sec)
propagations          : 7940           (2278336 /sec)
conflict literals     : 2193           (19.64 % deleted)
Memory used           : 13.00 MB
CPU time              : 0.003485 s

SATISFIABLE
